g9 0 1 0 51 20170614 0 4 0 496	# problem chain50
 100 51 1 0 51	# vars, constraints, objectives, ranges, eqns
 1 1	# nonlinear constraints, objectives
 0 0	# network constraints: nonlinear, linear
 51 100 51	# nonlinear vars in constraints, objectives, both
 0 0 0 1	# linear network variables; functions; arith, flags
 0 0 0 0 0	# discrete variables: binary, integer, nonlinear (b,c,o)
 249 100	# nonzeros in Jacobian, gradients
 0 0	# max name lengths: constraints, variables
 0 0 0 0 0	# common exprs: b,c,o,c1,o1
b
3
3
3
3
3
3
3
3
3
3
3
3
3
3
3
3
3
3
3
3
3
3
3
3
3
3
3
3
3
3
3
3
3
3
3
3
3
3
3
3
3
3
3
3
3
3
3
3
3
3
3
3
3
3
3
3
3
3
3
3
3
3
3
3
3
3
3
3
3
3
3
3
3
3
3
3
3
3
3
3
3
3
3
3
3
3
3
3
3
3
3
3
3
3
3
3
3
3
3
3
x100
0 -2
1 -1.84
2 -1.68
3 -1.52
4 -1.36
5 -1.2
6 -1.04
7 -0.88
8 -0.72
9 -0.56
10 -0.4
11 -0.24
12 -0.0800000000000001
13 0.0800000000000001
14 0.24
15 0.4
16 0.56
17 0.72
18 0.88
19 1.04
20 1.2
21 1.36
22 1.52
23 1.68
24 1.84
25 2
26 2.16
27 2.32
28 2.48
29 2.64
30 2.8
31 2.96
32 3.12
33 3.28
34 3.44
35 3.6
36 3.76
37 3.92
38 4.08
39 4.24
40 4.4
41 4.56
42 4.72
43 4.88
44 5.04
45 5.2
46 5.36
47 5.52
48 5.68
49 5.84
50 6
51 0.9616
52 0.9264
53 0.8944
54 0.8656
55 0.84
56 0.8176
57 0.7984
58 0.7824
59 0.7696
60 0.76
61 0.7536
62 0.7504
63 0.7504
64 0.7536
65 0.76
66 0.7696
67 0.7824
68 0.7984
69 0.8176
70 0.84
71 0.8656
72 0.8944
73 0.9264
74 0.9616
75 1
76 1.0416
77 1.0864
78 1.1344
79 1.1856
80 1.24
81 1.2976
82 1.3584
83 1.4224
84 1.4896
85 1.56
86 1.6336
87 1.7104
88 1.7904
89 1.8736
90 1.96
91 2.0496
92 2.1424
93 2.2384
94 2.3376
95 2.44
96 2.5456
97 2.6544
98 2.7664
99 2.8816
r
4 4
4 1
4 0
4 0
4 0
4 0
4 0
4 0
4 0
4 0
4 0
4 0
4 0
4 0
4 0
4 0
4 0
4 0
4 0
4 0
4 0
4 0
4 0
4 0
4 0
4 0
4 0
4 0
4 0
4 0
4 0
4 0
4 0
4 0
4 0
4 0
4 0
4 0
4 0
4 0
4 0
4 0
4 0
4 0
4 0
4 0
4 0
4 0
4 0
4 0
4 -3
C0
o54
100
o2
n0.01
o39
o0
n1
o5
v0
n2
o2
n0.01
o39
o0
n1
o5
v1
n2
o2
n0.01
o39
o0
n1
o5
v1
n2
o2
n0.01
o39
o0
n1
o5
v2
n2
o2
n0.01
o39
o0
n1
o5
v2
n2
o2
n0.01
o39
o0
n1
o5
v3
n2
o2
n0.01
o39
o0
n1
o5
v3
n2
o2
n0.01
o39
o0
n1
o5
v4
n2
o2
n0.01
o39
o0
n1
o5
v4
n2
o2
n0.01
o39
o0
n1
o5
v5
n2
o2
n0.01
o39
o0
n1
o5
v5
n2
o2
n0.01
o39
o0
n1
o5
v6
n2
o2
n0.01
o39
o0
n1
o5
v6
n2
o2
n0.01
o39
o0
n1
o5
v7
n2
o2
n0.01
o39
o0
n1
o5
v7
n2
o2
n0.01
o39
o0
n1
o5
v8
n2
o2
n0.01
o39
o0
n1
o5
v8
n2
o2
n0.01
o39
o0
n1
o5
v9
n2
o2
n0.01
o39
o0
n1
o5
v9
n2
o2
n0.01
o39
o0
n1
o5
v10
n2
o2
n0.01
o39
o0
n1
o5
v10
n2
o2
n0.01
o39
o0
n1
o5
v11
n2
o2
n0.01
o39
o0
n1
o5
v11
n2
o2
n0.01
o39
o0
n1
o5
v12
n2
o2
n0.01
o39
o0
n1
o5
v12
n2
o2
n0.01
o39
o0
n1
o5
v13
n2
o2
n0.01
o39
o0
n1
o5
v13
n2
o2
n0.01
o39
o0
n1
o5
v14
n2
o2
n0.01
o39
o0
n1
o5
v14
n2
o2
n0.01
o39
o0
n1
o5
v15
n2
o2
n0.01
o39
o0
n1
o5
v15
n2
o2
n0.01
o39
o0
n1
o5
v16
n2
o2
n0.01
o39
o0
n1
o5
v16
n2
o2
n0.01
o39
o0
n1
o5
v17
n2
o2
n0.01
o39
o0
n1
o5
v17
n2
o2
n0.01
o39
o0
n1
o5
v18
n2
o2
n0.01
o39
o0
n1
o5
v18
n2
o2
n0.01
o39
o0
n1
o5
v19
n2
o2
n0.01
o39
o0
n1
o5
v19
n2
o2
n0.01
o39
o0
n1
o5
v20
n2
o2
n0.01
o39
o0
n1
o5
v20
n2
o2
n0.01
o39
o0
n1
o5
v21
n2
o2
n0.01
o39
o0
n1
o5
v21
n2
o2
n0.01
o39
o0
n1
o5
v22
n2
o2
n0.01
o39
o0
n1
o5
v22
n2
o2
n0.01
o39
o0
n1
o5
v23
n2
o2
n0.01
o39
o0
n1
o5
v23
n2
o2
n0.01
o39
o0
n1
o5
v24
n2
o2
n0.01
o39
o0
n1
o5
v24
n2
o2
n0.01
o39
o0
n1
o5
v25
n2
o2
n0.01
o39
o0
n1
o5
v25
n2
o2
n0.01
o39
o0
n1
o5
v26
n2
o2
n0.01
o39
o0
n1
o5
v26
n2
o2
n0.01
o39
o0
n1
o5
v27
n2
o2
n0.01
o39
o0
n1
o5
v27
n2
o2
n0.01
o39
o0
n1
o5
v28
n2
o2
n0.01
o39
o0
n1
o5
v28
n2
o2
n0.01
o39
o0
n1
o5
v29
n2
o2
n0.01
o39
o0
n1
o5
v29
n2
o2
n0.01
o39
o0
n1
o5
v30
n2
o2
n0.01
o39
o0
n1
o5
v30
n2
o2
n0.01
o39
o0
n1
o5
v31
n2
o2
n0.01
o39
o0
n1
o5
v31
n2
o2
n0.01
o39
o0
n1
o5
v32
n2
o2
n0.01
o39
o0
n1
o5
v32
n2
o2
n0.01
o39
o0
n1
o5
v33
n2
o2
n0.01
o39
o0
n1
o5
v33
n2
o2
n0.01
o39
o0
n1
o5
v34
n2
o2
n0.01
o39
o0
n1
o5
v34
n2
o2
n0.01
o39
o0
n1
o5
v35
n2
o2
n0.01
o39
o0
n1
o5
v35
n2
o2
n0.01
o39
o0
n1
o5
v36
n2
o2
n0.01
o39
o0
n1
o5
v36
n2
o2
n0.01
o39
o0
n1
o5
v37
n2
o2
n0.01
o39
o0
n1
o5
v37
n2
o2
n0.01
o39
o0
n1
o5
v38
n2
o2
n0.01
o39
o0
n1
o5
v38
n2
o2
n0.01
o39
o0
n1
o5
v39
n2
o2
n0.01
o39
o0
n1
o5
v39
n2
o2
n0.01
o39
o0
n1
o5
v40
n2
o2
n0.01
o39
o0
n1
o5
v40
n2
o2
n0.01
o39
o0
n1
o5
v41
n2
o2
n0.01
o39
o0
n1
o5
v41
n2
o2
n0.01
o39
o0
n1
o5
v42
n2
o2
n0.01
o39
o0
n1
o5
v42
n2
o2
n0.01
o39
o0
n1
o5
v43
n2
o2
n0.01
o39
o0
n1
o5
v43
n2
o2
n0.01
o39
o0
n1
o5
v44
n2
o2
n0.01
o39
o0
n1
o5
v44
n2
o2
n0.01
o39
o0
n1
o5
v45
n2
o2
n0.01
o39
o0
n1
o5
v45
n2
o2
n0.01
o39
o0
n1
o5
v46
n2
o2
n0.01
o39
o0
n1
o5
v46
n2
o2
n0.01
o39
o0
n1
o5
v47
n2
o2
n0.01
o39
o0
n1
o5
v47
n2
o2
n0.01
o39
o0
n1
o5
v48
n2
o2
n0.01
o39
o0
n1
o5
v48
n2
o2
n0.01
o39
o0
n1
o5
v49
n2
o2
n0.01
o39
o0
n1
o5
v49
n2
o2
n0.01
o39
o0
n1
o5
v50
n2
C1
n0
C2
n0
C3
n0
C4
n0
C5
n0
C6
n0
C7
n0
C8
n0
C9
n0
C10
n0
C11
n0
C12
n0
C13
n0
C14
n0
C15
n0
C16
n0
C17
n0
C18
n0
C19
n0
C20
n0
C21
n0
C22
n0
C23
n0
C24
n0
C25
n0
C26
n0
C27
n0
C28
n0
C29
n0
C30
n0
C31
n0
C32
n0
C33
n0
C34
n0
C35
n0
C36
n0
C37
n0
C38
n0
C39
n0
C40
n0
C41
n0
C42
n0
C43
n0
C44
n0
C45
n0
C46
n0
C47
n0
C48
n0
C49
n0
C50
n0
O0 0
o54
100
o2
n0.01
o39
o0
n1
o5
v0
n2
o2
n0.01
o2
v51
o39
o0
n1
o5
v1
n2
o2
n0.01
o2
v51
o39
o0
n1
o5
v1
n2
o2
n0.01
o2
v52
o39
o0
n1
o5
v2
n2
o2
n0.01
o2
v52
o39
o0
n1
o5
v2
n2
o2
n0.01
o2
v53
o39
o0
n1
o5
v3
n2
o2
n0.01
o2
v53
o39
o0
n1
o5
v3
n2
o2
n0.01
o2
v54
o39
o0
n1
o5
v4
n2
o2
n0.01
o2
v54
o39
o0
n1
o5
v4
n2
o2
n0.01
o2
v55
o39
o0
n1
o5
v5
n2
o2
n0.01
o2
v55
o39
o0
n1
o5
v5
n2
o2
n0.01
o2
v56
o39
o0
n1
o5
v6
n2
o2
n0.01
o2
v56
o39
o0
n1
o5
v6
n2
o2
n0.01
o2
v57
o39
o0
n1
o5
v7
n2
o2
n0.01
o2
v57
o39
o0
n1
o5
v7
n2
o2
n0.01
o2
v58
o39
o0
n1
o5
v8
n2
o2
n0.01
o2
v58
o39
o0
n1
o5
v8
n2
o2
n0.01
o2
v59
o39
o0
n1
o5
v9
n2
o2
n0.01
o2
v59
o39
o0
n1
o5
v9
n2
o2
n0.01
o2
v60
o39
o0
n1
o5
v10
n2
o2
n0.01
o2
v60
o39
o0
n1
o5
v10
n2
o2
n0.01
o2
v61
o39
o0
n1
o5
v11
n2
o2
n0.01
o2
v61
o39
o0
n1
o5
v11
n2
o2
n0.01
o2
v62
o39
o0
n1
o5
v12
n2
o2
n0.01
o2
v62
o39
o0
n1
o5
v12
n2
o2
n0.01
o2
v63
o39
o0
n1
o5
v13
n2
o2
n0.01
o2
v63
o39
o0
n1
o5
v13
n2
o2
n0.01
o2
v64
o39
o0
n1
o5
v14
n2
o2
n0.01
o2
v64
o39
o0
n1
o5
v14
n2
o2
n0.01
o2
v65
o39
o0
n1
o5
v15
n2
o2
n0.01
o2
v65
o39
o0
n1
o5
v15
n2
o2
n0.01
o2
v66
o39
o0
n1
o5
v16
n2
o2
n0.01
o2
v66
o39
o0
n1
o5
v16
n2
o2
n0.01
o2
v67
o39
o0
n1
o5
v17
n2
o2
n0.01
o2
v67
o39
o0
n1
o5
v17
n2
o2
n0.01
o2
v68
o39
o0
n1
o5
v18
n2
o2
n0.01
o2
v68
o39
o0
n1
o5
v18
n2
o2
n0.01
o2
v69
o39
o0
n1
o5
v19
n2
o2
n0.01
o2
v69
o39
o0
n1
o5
v19
n2
o2
n0.01
o2
v70
o39
o0
n1
o5
v20
n2
o2
n0.01
o2
v70
o39
o0
n1
o5
v20
n2
o2
n0.01
o2
v71
o39
o0
n1
o5
v21
n2
o2
n0.01
o2
v71
o39
o0
n1
o5
v21
n2
o2
n0.01
o2
v72
o39
o0
n1
o5
v22
n2
o2
n0.01
o2
v72
o39
o0
n1
o5
v22
n2
o2
n0.01
o2
v73
o39
o0
n1
o5
v23
n2
o2
n0.01
o2
v73
o39
o0
n1
o5
v23
n2
o2
n0.01
o2
v74
o39
o0
n1
o5
v24
n2
o2
n0.01
o2
v74
o39
o0
n1
o5
v24
n2
o2
n0.01
o2
v75
o39
o0
n1
o5
v25
n2
o2
n0.01
o2
v75
o39
o0
n1
o5
v25
n2
o2
n0.01
o2
v76
o39
o0
n1
o5
v26
n2
o2
n0.01
o2
v76
o39
o0
n1
o5
v26
n2
o2
n0.01
o2
v77
o39
o0
n1
o5
v27
n2
o2
n0.01
o2
v77
o39
o0
n1
o5
v27
n2
o2
n0.01
o2
v78
o39
o0
n1
o5
v28
n2
o2
n0.01
o2
v78
o39
o0
n1
o5
v28
n2
o2
n0.01
o2
v79
o39
o0
n1
o5
v29
n2
o2
n0.01
o2
v79
o39
o0
n1
o5
v29
n2
o2
n0.01
o2
v80
o39
o0
n1
o5
v30
n2
o2
n0.01
o2
v80
o39
o0
n1
o5
v30
n2
o2
n0.01
o2
v81
o39
o0
n1
o5
v31
n2
o2
n0.01
o2
v81
o39
o0
n1
o5
v31
n2
o2
n0.01
o2
v82
o39
o0
n1
o5
v32
n2
o2
n0.01
o2
v82
o39
o0
n1
o5
v32
n2
o2
n0.01
o2
v83
o39
o0
n1
o5
v33
n2
o2
n0.01
o2
v83
o39
o0
n1
o5
v33
n2
o2
n0.01
o2
v84
o39
o0
n1
o5
v34
n2
o2
n0.01
o2
v84
o39
o0
n1
o5
v34
n2
o2
n0.01
o2
v85
o39
o0
n1
o5
v35
n2
o2
n0.01
o2
v85
o39
o0
n1
o5
v35
n2
o2
n0.01
o2
v86
o39
o0
n1
o5
v36
n2
o2
n0.01
o2
v86
o39
o0
n1
o5
v36
n2
o2
n0.01
o2
v87
o39
o0
n1
o5
v37
n2
o2
n0.01
o2
v87
o39
o0
n1
o5
v37
n2
o2
n0.01
o2
v88
o39
o0
n1
o5
v38
n2
o2
n0.01
o2
v88
o39
o0
n1
o5
v38
n2
o2
n0.01
o2
v89
o39
o0
n1
o5
v39
n2
o2
n0.01
o2
v89
o39
o0
n1
o5
v39
n2
o2
n0.01
o2
v90
o39
o0
n1
o5
v40
n2
o2
n0.01
o2
v90
o39
o0
n1
o5
v40
n2
o2
n0.01
o2
v91
o39
o0
n1
o5
v41
n2
o2
n0.01
o2
v91
o39
o0
n1
o5
v41
n2
o2
n0.01
o2
v92
o39
o0
n1
o5
v42
n2
o2
n0.01
o2
v92
o39
o0
n1
o5
v42
n2
o2
n0.01
o2
v93
o39
o0
n1
o5
v43
n2
o2
n0.01
o2
v93
o39
o0
n1
o5
v43
n2
o2
n0.01
o2
v94
o39
o0
n1
o5
v44
n2
o2
n0.01
o2
v94
o39
o0
n1
o5
v44
n2
o2
n0.01
o2
v95
o39
o0
n1
o5
v45
n2
o2
n0.01
o2
v95
o39
o0
n1
o5
v45
n2
o2
n0.01
o2
v96
o39
o0
n1
o5
v46
n2
o2
n0.01
o2
v96
o39
o0
n1
o5
v46
n2
o2
n0.01
o2
v97
o39
o0
n1
o5
v47
n2
o2
n0.01
o2
v97
o39
o0
n1
o5
v47
n2
o2
n0.01
o2
v98
o39
o0
n1
o5
v48
n2
o2
n0.01
o2
v98
o39
o0
n1
o5
v48
n2
o2
n0.01
o2
v99
o39
o0
n1
o5
v49
n2
o2
n0.01
o2
v99
o39
o0
n1
o5
v49
n2
o2
n0.03
o39
o0
n1
o5
v50
n2
k99
2
5
8
11
14
17
20
23
26
29
32
35
38
41
44
47
50
53
56
59
62
65
68
71
74
77
80
83
86
89
92
95
98
101
104
107
110
113
116
119
122
125
128
131
134
137
140
143
146
149
151
153
155
157
159
161
163
165
167
169
171
173
175
177
179
181
183
185
187
189
191
193
195
197
199
201
203
205
207
209
211
213
215
217
219
221
223
225
227
229
231
233
235
237
239
241
243
245
247
J0 51
0 0
1 0
2 0
3 0
4 0
5 0
6 0
7 0
8 0
9 0
10 0
11 0
12 0
13 0
14 0
15 0
16 0
17 0
18 0
19 0
20 0
21 0
22 0
23 0
24 0
25 0
26 0
27 0
28 0
29 0
30 0
31 0
32 0
33 0
34 0
35 0
36 0
37 0
38 0
39 0
40 0
41 0
42 0
43 0
44 0
45 0
46 0
47 0
48 0
49 0
50 0
J1 3
0 -0.01
1 -0.01
51 1
J2 4
1 -0.01
2 -0.01
51 -1
52 1
J3 4
2 -0.01
3 -0.01
52 -1
53 1
J4 4
3 -0.01
4 -0.01
53 -1
54 1
J5 4
4 -0.01
5 -0.01
54 -1
55 1
J6 4
5 -0.01
6 -0.01
55 -1
56 1
J7 4
6 -0.01
7 -0.01
56 -1
57 1
J8 4
7 -0.01
8 -0.01
57 -1
58 1
J9 4
8 -0.01
9 -0.01
58 -1
59 1
J10 4
9 -0.01
10 -0.01
59 -1
60 1
J11 4
10 -0.01
11 -0.01
60 -1
61 1
J12 4
11 -0.01
12 -0.01
61 -1
62 1
J13 4
12 -0.01
13 -0.01
62 -1
63 1
J14 4
13 -0.01
14 -0.01
63 -1
64 1
J15 4
14 -0.01
15 -0.01
64 -1
65 1
J16 4
15 -0.01
16 -0.01
65 -1
66 1
J17 4
16 -0.01
17 -0.01
66 -1
67 1
J18 4
17 -0.01
18 -0.01
67 -1
68 1
J19 4
18 -0.01
19 -0.01
68 -1
69 1
J20 4
19 -0.01
20 -0.01
69 -1
70 1
J21 4
20 -0.01
21 -0.01
70 -1
71 1
J22 4
21 -0.01
22 -0.01
71 -1
72 1
J23 4
22 -0.01
23 -0.01
72 -1
73 1
J24 4
23 -0.01
24 -0.01
73 -1
74 1
J25 4
24 -0.01
25 -0.01
74 -1
75 1
J26 4
25 -0.01
26 -0.01
75 -1
76 1
J27 4
26 -0.01
27 -0.01
76 -1
77 1
J28 4
27 -0.01
28 -0.01
77 -1
78 1
J29 4
28 -0.01
29 -0.01
78 -1
79 1
J30 4
29 -0.01
30 -0.01
79 -1
80 1
J31 4
30 -0.01
31 -0.01
80 -1
81 1
J32 4
31 -0.01
32 -0.01
81 -1
82 1
J33 4
32 -0.01
33 -0.01
82 -1
83 1
J34 4
33 -0.01
34 -0.01
83 -1
84 1
J35 4
34 -0.01
35 -0.01
84 -1
85 1
J36 4
35 -0.01
36 -0.01
85 -1
86 1
J37 4
36 -0.01
37 -0.01
86 -1
87 1
J38 4
37 -0.01
38 -0.01
87 -1
88 1
J39 4
38 -0.01
39 -0.01
88 -1
89 1
J40 4
39 -0.01
40 -0.01
89 -1
90 1
J41 4
40 -0.01
41 -0.01
90 -1
91 1
J42 4
41 -0.01
42 -0.01
91 -1
92 1
J43 4
42 -0.01
43 -0.01
92 -1
93 1
J44 4
43 -0.01
44 -0.01
93 -1
94 1
J45 4
44 -0.01
45 -0.01
94 -1
95 1
J46 4
45 -0.01
46 -0.01
95 -1
96 1
J47 4
46 -0.01
47 -0.01
96 -1
97 1
J48 4
47 -0.01
48 -0.01
97 -1
98 1
J49 4
48 -0.01
49 -0.01
98 -1
99 1
J50 3
49 -0.01
50 -0.01
99 -1
G0 100
0 0
1 0
2 0
3 0
4 0
5 0
6 0
7 0
8 0
9 0
10 0
11 0
12 0
13 0
14 0
15 0
16 0
17 0
18 0
19 0
20 0
21 0
22 0
23 0
24 0
25 0
26 0
27 0
28 0
29 0
30 0
31 0
32 0
33 0
34 0
35 0
36 0
37 0
38 0
39 0
40 0
41 0
42 0
43 0
44 0
45 0
46 0
47 0
48 0
49 0
50 0
51 0
52 0
53 0
54 0
55 0
56 0
57 0
58 0
59 0
60 0
61 0
62 0
63 0
64 0
65 0
66 0
67 0
68 0
69 0
70 0
71 0
72 0
73 0
74 0
75 0
76 0
77 0
78 0
79 0
80 0
81 0
82 0
83 0
84 0
85 0
86 0
87 0
88 0
89 0
90 0
91 0
92 0
93 0
94 0
95 0
96 0
97 0
98 0
99 0
